
******************************************************************************
This program contains Ipopt, a library for large-scale nonlinear optimization.
 Ipopt is released as open source code under the Eclipse Public License (EPL).
         For more information visit https://github.com/coin-or/Ipopt
******************************************************************************

This is Ipopt version 3.14.14, running with linear solver MUMPS 5.6.2.

Number of nonzeros in equality constraint Jacobian...:  1199894
Number of nonzeros in inequality constraint Jacobian.:        0
Number of nonzeros in Lagrangian Hessian.............:   319980

Total number of variables............................:   351978
                     variables with only lower bounds:        0
                variables with lower and upper bounds:        0
                     variables with only upper bounds:        0
Total number of equality constraints.................:   319978
Total number of inequality constraints...............:        0
        inequality constraints with only lower bounds:        0
   inequality constraints with lower and upper bounds:        0
        inequality constraints with only upper bounds:        0

iter    objective    inf_pr   inf_du lg(mu)  ||d||  lg(rg) alpha_du alpha_pr  ls
   0  2.3000000e+02 9.80e+00 1.50e-02  -1.0 0.00e+00    -  0.00e+00 0.00e+00   0
   1  7.1866792e+02 1.78e-15 8.50e+01  -1.0 1.02e+01    -  1.00e+00 1.00e+00h  1
   2  7.1864699e+02 8.66e-11 1.38e-02  -1.0 1.38e-04   2.0 1.00e+00 1.00e+00f  1
   3  5.6870100e+02 3.76e-02 3.47e-03  -3.8 2.00e+00    -  1.00e+00 1.00e+00f  1
   4  5.6875702e+02 5.44e-04 9.61e-06  -3.8 2.01e-01    -  1.00e+00 1.00e+00h  1
   5  5.6875706e+02 1.82e-09 3.79e-11  -5.7 5.12e-04    -  1.00e+00 1.00e+00h  1

Number of Iterations....: 5

                                   (scaled)                 (unscaled)
Objective...............:   5.6875705574068468e+02    5.6875705574068468e+02
Dual infeasibility......:   3.7942379686533526e-11    3.7942379686533526e-11
Constraint violation....:   1.8202353582741360e-09    1.8202353582741360e-09
Variable bound violation:   0.0000000000000000e+00    0.0000000000000000e+00
Complementarity.........:   0.0000000000000000e+00    0.0000000000000000e+00
Overall NLP error.......:   1.8202353582741360e-09    1.8202353582741360e-09


Number of objective function evaluations             = 6
Number of objective gradient evaluations             = 6
Number of equality constraint evaluations            = 6
Number of inequality constraint evaluations          = 0
Number of equality constraint Jacobian evaluations   = 6
Number of inequality constraint Jacobian evaluations = 0
Number of Lagrangian Hessian evaluations             = 5
Total seconds in IPOPT (w/o function evaluations)    =     10.242
Total seconds in NLP function evaluations            =      2.388


Timing Statistics:

OverallAlgorithm....................:     26.104 (sys:     18.105 wall:     12.630)
 PrintProblemStatistics.............:      0.036 (sys:      0.011 wall:      0.004)
 InitializeIterates.................:      1.768 (sys:      0.209 wall:      1.977)
 UpdateHessian......................:      5.727 (sys:      4.825 wall:      1.440)
 OutputIteration....................:      0.002 (sys:      0.001 wall:      0.001)
 UpdateBarrierParameter.............:      0.000 (sys:      0.000 wall:      0.000)
 ComputeSearchDirection.............:     12.390 (sys:      6.944 wall:      8.228)
 ComputeAcceptableTrialPoint........:      3.924 (sys:      4.209 wall:      0.525)
 AcceptTrialPoint...................:      0.002 (sys:      0.002 wall:      0.000)
 CheckConvergence...................:      2.254 (sys:      1.902 wall:      0.454)
PDSystemSolverTotal.................:     12.386 (sys:      6.943 wall:      8.224)
 PDSystemSolverSolveOnce............:     11.243 (sys:      5.962 wall:      8.063)
 ComputeResiduals...................:      0.885 (sys:      0.739 wall:      0.127)
 StdAugSystemSolverMultiSolve.......:     12.573 (sys:      6.091 wall:      9.584)
 LinearSystemScaling................:      0.000 (sys:      0.000 wall:      0.000)
 LinearSystemSymbolicFactorization..:      0.728 (sys:      0.048 wall:      0.776)
 LinearSystemFactorization..........:      0.000 (sys:      0.000 wall:      0.000)
 LinearSystemBackSolve..............:      6.083 (sys:      4.828 wall:      1.998)
 LinearSystemStructureConverter.....:      0.000 (sys:      0.000 wall:      0.000)
  LinearSystemStructureConverterInit:      0.000 (sys:      0.000 wall:      0.000)
QualityFunctionSearch...............:      0.000 (sys:      0.000 wall:      0.000)
TryCorrector........................:      0.000 (sys:      0.000 wall:      0.000)
Task1...............................:      0.000 (sys:      0.000 wall:      0.000)
Task2...............................:      0.000 (sys:      0.000 wall:      0.000)
Task3...............................:      0.000 (sys:      0.000 wall:      0.000)
Task4...............................:      0.000 (sys:      0.000 wall:      0.000)
Task5...............................:      0.000 (sys:      0.000 wall:      0.000)
Task6...............................:      0.000 (sys:      0.000 wall:      0.000)
Function Evaluations................:     11.459 (sys:     10.440 wall:      2.388)
 Objective function.................:      0.740 (sys:      0.743 wall:      0.095)
 Objective function gradient........:      0.617 (sys:      0.573 wall:      0.086)
 Equality constraints...............:      3.645 (sys:      3.817 wall:      0.487)
 Inequality constraints.............:      0.000 (sys:      0.000 wall:      0.000)
 Equality constraint Jacobian.......:      0.730 (sys:      0.483 wall:      0.280)
 Inequality constraint Jacobian.....:      0.000 (sys:      0.000 wall:      0.000)
 Lagrangian Hessian.................:      5.726 (sys:      4.824 wall:      1.440)

EXIT: Optimal Solution Found.
